Version identifier: 22.1.0.0 | 2022-03-09 | 1a383f8ce
CPXPARAM_Threads                                 1
CPXPARAM_MIP_Strategy_VariableSelect             3
CPXPARAM_TimeLimit                               599.99891989900004
1 of 1 MIP starts provided solutions.
MIP start 'm1' defined initial solution with objective 300.0000.
Tried aggregator 2 times.
MIP Presolve eliminated 43 rows and 1 columns.
MIP Presolve added 36 rows and 9 columns.
MIP Presolve modified 5 coefficients.
Aggregator did 9 substitutions.
Reduced MIP has 1810 rows, 7800 columns, and 149728 nonzeros.
Reduced MIP has 7800 binaries, 0 generals, 0 SOSs, and 0 indicators.
Presolve time = 0.14 sec. (177.97 ticks)
Probing time = 0.03 sec. (29.54 ticks)
Tried aggregator 1 time.
Detecting symmetries...
Reduced MIP has 1810 rows, 7800 columns, and 149728 nonzeros.
Reduced MIP has 7800 binaries, 0 generals, 0 SOSs, and 0 indicators.
Presolve time = 0.10 sec. (139.19 ticks)
Probing time = 0.03 sec. (29.54 ticks)
Clique table members: 301.
MIP emphasis: balance optimality and feasibility.
MIP search method: dynamic search.
Parallel mode: none, using 1 thread.
Root relaxation solution time = 0.04 sec. (39.96 ticks)

        Nodes                                         Cuts/
   Node  Left     Objective  IInf  Best Integer    Best Bound    ItCnt     Gap

*     0+    0                          300.0000    45150.0000              --- 
      0     0        cutoff            300.0000                    282     --- 

Root node processing (before b&c):
  Real time             =    0.42 sec. (491.02 ticks)
Sequential b&c:
  Real time             =    0.00 sec. (0.00 ticks)
                          ------------
Total (root+branch&cut) =    0.42 sec. (491.02 ticks)
Primal:	300
Dual:	300
Status:	Optimal
Time:	0.44
Sequence:
	9
	0
	18
	4
	22
	10
	19
	1
	15
	24
	21
	11
	3
	12
	20
	11
	1
	14
	1
	18
	14
	6
	10
	10
	4
	11
	5
	1
	13
	21
	21
	11
	5
	0
	13
	12
	21
	13
	1
	22
	19
	24
	3
	21
	10
	11
	24
	13
	24
	11
	8
	5
	15
	20
	23
	3
	15
	18
	10
	14
	24
	3
	23
	5
	13
	6
	18
	2
	19
	11
	14
	12
	23
	14
	15
	22
	5
	14
	0
	4
	10
	17
	22
	18
	14
	6
	11
	3
	8
	14
	3
	1
	14
	21
	6
	0
	19
	16
	11
	3
	2
	21
	2
	0
	20
	17
	14
	17
	19
	14
	21
	21
	17
	10
	15
	18
	17
	10
	21
	4
	24
	16
	2
	4
	3
	7
	1
	15
	23
	4
	0
	0
	11
	16
	17
	21
	3
	6
	17
	23
	20
	3
	21
	21
	17
	18
	12
	19
	10
	24
	15
	9
	14
	1
	24
	17
	4
	12
	7
	15
	2
	15
	23
	18
	2
	23
	18
	6
	19
	9
	11
	0
	20
	11
	4
	6
	6
	7
	8
	23
	1
	4
	7
	5
	9
	8
	4
	6
	11
	15
	16
	5
	17
	12
	16
	15
	7
	2
	17
	0
	8
	6
	7
	24
	8
	11
	5
	15
	16
	24
	2
	0
	7
	6
	9
	17
	20
	6
	22
	2
	16
	20
	4
	6
	22
	23
	6
	17
	16
	8
	1
	12
	2
	16
	0
	8
	12
	24
	19
	23
	21
	17
	19
	16
	12
	11
	16
	1
	9
	12
	7
	11
	20
	9
	1
	20
	9
	5
	1
	8
	0
	19
	1
	16
	9
	12
	12
	8
	16
	9
	1
	0
	19
	20
	9
	1
	8
	2
	0
	23
	9
	20
	5
	4
	23
	20
	2
	16
	11
	9
	7
	23
	9
	19
	1
	17
	0
	8
	24
	24
